p cnf 412 698
-15 28 9 76 0
-15 28 9 -76 0
-73 6 -75 77 0
-73 6 -75 -77 0
20 5 -52 78 0
20 5 -52 -78 0
29 -42 71 79 0
29 -42 71 -79 0
-42 71 -74 80 0
-42 71 -74 -80 0
-57 47 -7 81 0
-57 47 -7 -81 0
23 31 50 82 0
23 31 50 -82 0
61 -32 -16 83 0
61 -32 -16 -83 0
9 -68 -16 84 0
9 -68 -16 -84 0
29 39 49 85 0
29 39 49 -85 0
7 -8 52 86 0
7 -8 52 -86 0
58 -20 -42 87 0
58 -20 -42 -87 0
-44 -27 -10 88 0
-44 -27 -10 -88 0
-33 73 -41 89 0
-33 73 -41 -89 0
-26 -30 2 90 0
-26 -30 2 -90 0
-5 63 37 91 0
-5 63 37 -91 0
66 58 54 92 0
66 58 54 -92 0
10 -59 47 93 0
10 -59 47 -93 0
68 -75 33 94 0
68 -75 33 -94 0
-71 -73 -63 95 0
-71 -73 -63 -95 0
-25 -1 31 96 0
-25 -1 31 -96 0
-20 47 14 97 0
-20 47 14 -97 0
-18 14 -13 98 0
-18 14 -13 -98 0
-24 -25 55 99 0
-24 -25 55 -99 0
15 -52 25 100 0
15 -52 25 -100 0
46 -73 22 101 0
46 -73 22 -101 0
-32 3 -50 102 0
-32 3 -50 -102 0
75 18 66 103 0
75 18 66 -103 0
-66 30 48 104 0
-66 30 48 -104 0
72 25 -6 105 0
72 25 -6 -105 0
-42 -73 52 106 0
-42 -73 52 -106 0
-67 31 -39 107 0
-67 31 -39 -107 0
19 1 -57 108 0
19 1 -57 -108 0
33 -3 17 109 0
33 -3 17 -109 0
-34 -45 52 110 0
-34 -45 52 -110 0
-19 33 -1 111 0
-19 33 -1 -111 0
-32 -12 30 112 0
-32 -12 30 -112 0
34 71 -32 113 0
34 71 -32 -113 0
2 -38 46 114 0
2 -38 46 -114 0
45 -1 -64 115 0
45 -1 -64 -115 0
25 -59 12 116 0
25 -59 12 -116 0
-25 11 45 117 0
-25 11 45 -117 0
-10 -39 18 118 0
-10 -39 18 -118 0
-9 -55 61 119 0
-9 -55 61 -119 0
-74 -42 -29 120 0
-74 -42 -29 -120 0
-42 -13 53 121 0
-42 -13 53 -121 0
-11 -63 -43 122 0
-11 -63 -43 -122 0
2 52 -12 123 0
2 52 -12 -123 0
42 26 -45 124 0
42 26 -45 -124 0
54 -5 -9 125 0
54 -5 -9 -125 0
-1 35 -9 126 0
-1 35 -9 -126 0
-10 24 34 127 0
-10 24 34 -127 0
26 5 -52 128 0
26 5 -52 -128 0
-28 65 20 129 0
-28 65 20 -129 0
-40 70 30 130 0
-40 70 30 -130 0
-45 -1 -57 131 0
-45 -1 -57 -131 0
-25 -63 18 132 0
-25 -63 18 -132 0
59 66 -26 133 0
59 66 -26 -133 0
-29 -55 -39 134 0
-29 -55 -39 -134 0
74 -17 -49 135 0
74 -17 -49 -135 0
51 34 50 136 0
51 34 50 -136 0
-27 37 -16 137 0
-27 37 -16 -137 0
65 -4 -46 138 0
65 -4 -46 -138 0
64 -68 53 139 0
64 -68 53 -139 0
-6 -39 46 140 0
-6 -39 46 -140 0
29 -43 68 141 0
29 -43 68 -141 0
-31 -26 -42 142 0
-31 -26 -42 -142 0
-28 -59 66 143 0
-28 -59 66 -143 0
-71 63 -21 144 0
-71 63 -21 -144 0
-3 21 25 145 0
-3 21 25 -145 0
-7 29 -59 146 0
-7 29 -59 -146 0
-4 62 9 147 0
-4 62 9 -147 0
32 -61 -63 148 0
32 -61 -63 -148 0
-51 55 -50 149 0
-51 55 -50 -149 0
58 30 10 150 0
58 30 10 -150 0
23 9 -39 151 0
23 9 -39 -151 0
-65 -12 56 152 0
-65 -12 56 -152 0
-2 14 -1 153 0
-2 14 -1 -153 0
50 11 -39 154 0
50 11 -39 -154 0
13 -65 22 155 0
13 -65 22 -155 0
-33 19 -32 156 0
-33 19 -32 -156 0
-65 15 51 157 0
-65 15 51 -157 0
-60 15 46 158 0
-60 15 46 -158 0
44 53 16 159 0
44 53 16 -159 0
74 14 12 160 0
74 14 12 -160 0
-43 -68 -26 161 0
-43 -68 -26 -161 0
39 53 66 162 0
39 53 66 -162 0
46 -7 18 163 0
46 -7 18 -163 0
21 -34 -73 164 0
21 -34 -73 -164 0
-59 -39 -12 165 0
-59 -39 -12 -165 0
2 26 40 166 0
2 26 40 -166 0
-4 63 5 167 0
-4 63 5 -167 0
73 -47 33 168 0
73 -47 33 -168 0
37 -8 58 169 0
37 -8 58 -169 0
-32 27 -62 170 0
-32 27 -62 -170 0
-16 -23 70 171 0
-16 -23 70 -171 0
7 -54 8 172 0
7 -54 8 -172 0
-38 -46 -55 173 0
-38 -46 -55 -173 0
20 -23 50 174 0
20 -23 50 -174 0
25 -13 -44 175 0
25 -13 -44 -175 0
-56 -72 -13 176 0
-56 -72 -13 -176 0
70 -58 41 177 0
70 -58 41 -177 0
-10 32 -59 178 0
-10 32 -59 -178 0
32 -47 -68 179 0
32 -47 -68 -179 0
-24 73 -61 180 0
-24 73 -61 -180 0
-57 -64 38 181 0
-57 -64 38 -181 0
56 33 -71 182 0
56 33 -71 -182 0
35 44 -22 183 0
35 44 -22 -183 0
-64 -66 -22 184 0
-64 -66 -22 -184 0
29 20 -67 185 0
29 20 -67 -185 0
56 -68 63 186 0
56 -68 63 -186 0
32 -42 58 187 0
32 -42 58 -187 0
-17 -23 61 188 0
-17 -23 61 -188 0
13 30 10 189 0
13 30 10 -189 0
28 -40 26 190 0
28 -40 26 -190 0
19 -34 30 191 0
19 -34 30 -191 0
32 9 -57 192 0
32 9 -57 -192 0
32 52 67 193 0
32 52 67 -193 0
-37 -28 -63 194 0
-37 -28 -63 -194 0
53 15 38 195 0
53 15 38 -195 0
-41 -52 50 196 0
-41 -52 50 -196 0
-11 15 -35 197 0
-11 15 -35 -197 0
36 60 -47 198 0
36 60 -47 -198 0
-60 38 14 199 0
-60 38 14 -199 0
45 -62 -15 200 0
45 -62 -15 -200 0
-23 30 25 201 0
-23 30 25 -201 0
-24 35 -22 202 0
-24 35 -22 -202 0
53 62 36 203 0
53 62 36 -203 0
10 -74 75 204 0
10 -74 75 -204 0
-24 15 -70 205 0
-24 15 -70 -205 0
11 -45 -14 206 0
11 -45 -14 -206 0
-42 -66 73 207 0
-42 -66 73 -207 0
-39 -27 10 208 0
-39 -27 10 -208 0
36 61 -22 209 0
36 61 -22 -209 0
43 -33 7 210 0
43 -33 7 -210 0
21 -6 -73 211 0
21 -6 -73 -211 0
-72 -7 31 212 0
-72 -7 31 -212 0
18 33 32 213 0
18 33 32 -213 0
-52 67 68 214 0
-52 67 68 -214 0
-65 69 34 215 0
-65 69 34 -215 0
24 52 -34 216 0
24 52 -34 -216 0
62 8 -4 217 0
62 8 -4 -217 0
-23 -20 -32 218 0
-23 -20 -32 -218 0
-61 23 55 219 0
-61 23 55 -219 0
54 10 75 220 0
54 10 75 -220 0
-41 -29 7 221 0
-41 -29 7 -221 0
72 -37 24 222 0
72 -37 24 -222 0
74 -1 44 223 0
74 -1 44 -223 0
-17 41 -39 224 0
-17 41 -39 -224 0
3 73 -69 225 0
3 73 -69 -225 0
32 -50 27 226 0
32 -50 27 -226 0
54 -45 39 227 0
54 -45 39 -227 0
-27 -43 -18 228 0
-27 -43 -18 -228 0
-12 14 -39 229 0
-12 14 -39 -229 0
34 12 -55 230 0
34 12 -55 -230 0
-25 45 40 231 0
-25 45 40 -231 0
53 -61 57 232 0
53 -61 57 -232 0
-33 15 -69 233 0
-33 15 -69 -233 0
49 -23 4 234 0
49 -23 4 -234 0
-69 -30 -26 235 0
-69 -30 -26 -235 0
39 -6 9 236 0
39 -6 9 -236 0
-15 -34 -2 237 0
-15 -34 -2 -237 0
22 -8 4 238 0
22 -8 4 -238 0
6 -31 37 239 0
6 -31 37 -239 0
-23 37 -64 240 0
-23 37 -64 -240 0
11 -49 50 241 0
11 -49 50 -241 0
-35 -65 36 242 0
-35 -65 36 -242 0
8 47 -28 243 0
8 47 -28 -243 0
29 60 5 244 0
29 60 5 -244 0
60 -64 -26 245 0
60 -64 -26 -245 0
44 -47 63 246 0
44 -47 63 -246 0
-12 64 57 247 0
-12 64 57 -247 0
5 74 34 248 0
5 74 34 -248 0
56 -12 -6 249 0
56 -12 -6 -249 0
3 26 -68 250 0
3 26 -68 -250 0
-3 71 31 251 0
-3 71 31 -251 0
-12 29 -18 252 0
-12 29 -18 -252 0
73 -30 -43 253 0
73 -30 -43 -253 0
33 -37 -6 254 0
33 -37 -6 -254 0
-5 57 70 255 0
-5 57 70 -255 0
60 19 15 256 0
60 19 15 -256 0
-44 20 60 257 0
-44 20 60 -257 0
-32 -11 39 258 0
-32 -11 39 -258 0
-69 75 57 259 0
-69 75 57 -259 0
-44 -42 18 260 0
-44 -42 18 -260 0
-58 -24 -53 261 0
-58 -24 -53 -261 0
-28 7 13 262 0
-28 7 13 -262 0
25 -30 61 263 0
25 -30 61 -263 0
17 71 63 264 0
17 71 63 -264 0
60 74 42 265 0
60 74 42 -265 0
5 61 -54 266 0
5 61 -54 -266 0
-29 30 -47 267 0
-29 30 -47 -267 0
-63 -47 20 268 0
-63 -47 20 -268 0
-54 12 -11 269 0
-54 12 -11 -269 0
65 12 41 270 0
65 12 41 -270 0
32 -40 64 271 0
32 -40 64 -271 0
50 70 -41 272 0
50 70 -41 -272 0
12 -24 35 273 0
12 -24 35 -273 0
-46 51 -41 274 0
-46 51 -41 -274 0
-24 7 -5 275 0
-24 7 -5 -275 0
-68 69 -4 276 0
-68 69 -4 -276 0
67 -53 -39 277 0
67 -53 -39 -277 0
-21 -11 23 278 0
-21 -11 23 -278 0
-9 -12 70 279 0
-9 -12 70 -279 0
43 -17 47 280 0
43 -17 47 -280 0
-74 -48 -14 281 0
-74 -48 -14 -281 0
45 29 22 282 0
45 29 22 -282 0
22 38 -45 283 0
22 38 -45 -283 0
-11 16 -58 284 0
-11 16 -58 -284 0
-28 25 -10 285 0
-28 25 -10 -285 0
10 29 37 286 0
10 29 37 -286 0
7 -53 -41 287 0
7 -53 -41 -287 0
49 1 31 288 0
49 1 31 -288 0
-7 -14 -50 289 0
-7 -14 -50 -289 0
-58 26 -8 290 0
-58 26 -8 -290 0
57 -34 -68 291 0
57 -34 -68 -291 0
-30 63 52 292 0
-30 63 52 -292 0
65 32 -21 293 0
65 32 -21 -293 0
14 -48 29 294 0
14 -48 29 -294 0
-61 72 -19 295 0
-61 72 -19 -295 0
-34 55 -50 296 0
-34 55 -50 -296 0
7 -25 -26 297 0
7 -25 -26 -297 0
67 30 -14 298 0
67 30 -14 -298 0
66 -51 -22 299 0
66 -51 -22 -299 0
-31 39 65 300 0
-31 39 65 -300 0
32 50 66 301 0
32 50 66 -301 0
55 33 52 302 0
55 33 52 -302 0
63 26 46 303 0
63 26 46 -303 0
-49 -27 58 304 0
-49 -27 58 -304 0
-63 -2 1 305 0
-63 -2 1 -305 0
-63 8 67 306 0
-63 8 67 -306 0
-5 -69 50 307 0
-5 -69 50 -307 0
-72 -62 -35 308 0
-72 -62 -35 -308 0
50 36 -23 309 0
50 36 -23 -309 0
-69 -18 -71 310 0
-69 -18 -71 -310 0
11 56 -55 311 0
11 56 -55 -311 0
-19 38 -62 312 0
-19 38 -62 -312 0
3 -15 48 313 0
3 -15 48 -313 0
-32 69 -55 314 0
-32 69 -55 -314 0
-58 42 44 315 0
-58 42 44 -315 0
-63 -16 -70 316 0
-63 -16 -70 -316 0
8 11 51 317 0
8 11 51 -317 0
-3 44 -9 318 0
-3 44 -9 -318 0
-72 -58 -36 319 0
-72 -58 -36 -319 0
-24 29 -26 320 0
-24 29 -26 -320 0
7 -69 -1 321 0
7 -69 -1 -321 0
-65 60 40 322 0
-65 60 40 -322 0
69 57 -9 323 0
69 57 -9 -323 0
29 64 -11 324 0
29 64 -11 -324 0
28 -64 21 325 0
28 -64 21 -325 0
26 -63 -7 326 0
26 -63 -7 -326 0
-16 34 -40 327 0
-16 34 -40 -327 0
-55 -17 -34 328 0
-55 -17 -34 -328 0
-39 3 -29 329 0
-39 3 -29 -329 0
-44 -35 -53 330 0
-44 -35 -53 -330 0
71 4 35 331 0
71 4 35 -331 0
58 46 -38 332 0
58 46 -38 -332 0
74 -6 -4 333 0
74 -6 -4 -333 0
72 32 -56 334 0
72 32 -56 -334 0
-14 -50 -22 335 0
-14 -50 -22 -335 0
-39 35 4 336 0
-39 35 4 -336 0
-2 -20 4 337 0
-2 -20 4 -337 0
27 -39 34 338 0
27 -39 34 -338 0
-8 67 -60 339 0
-8 67 -60 -339 0
-50 31 40 340 0
-50 31 40 -340 0
-71 -61 39 341 0
-71 -61 39 -341 0
32 60 -20 342 0
32 60 -20 -342 0
65 51 24 343 0
65 51 24 -343 0
51 -13 11 344 0
51 -13 11 -344 0
-25 -50 58 345 0
-25 -50 58 -345 0
68 -41 -65 346 0
68 -41 -65 -346 0
-31 72 -33 347 0
-31 72 -33 -347 0
-34 -21 32 348 0
-34 -21 32 -348 0
1 -20 -50 349 0
1 -20 -50 -349 0
38 -5 -24 350 0
38 -5 -24 -350 0
25 61 -34 351 0
25 61 -34 -351 0
62 46 70 352 0
62 46 70 -352 0
1 55 48 353 0
1 55 48 -353 0
-70 -38 37 354 0
-70 -38 37 -354 0
-18 11 21 355 0
-18 11 21 -355 0
-34 -56 75 356 0
-34 -56 75 -356 0
-67 57 61 357 0
-67 57 61 -357 0
-13 1 61 358 0
-13 1 61 -358 0
-3 -28 59 359 0
-3 -28 59 -359 0
56 -14 -43 360 0
56 -14 -43 -360 0
16 13 -55 361 0
16 13 -55 -361 0
30 -73 32 362 0
30 -73 32 -362 0
22 -72 -33 363 0
22 -72 -33 -363 0
29 60 19 364 0
29 60 19 -364 0
45 4 28 365 0
45 4 28 -365 0
-11 21 20 366 0
-11 21 20 -366 0
-39 64 23 367 0
-39 64 23 -367 0
-27 26 -3 368 0
-27 26 -3 -368 0
-50 -61 -44 369 0
-50 -61 -44 -369 0
8 -43 71 370 0
8 -43 71 -370 0
-43 -65 -21 371 0
-43 -65 -21 -371 0
13 17 -45 372 0
13 17 -45 -372 0
-42 38 74 373 0
-42 38 74 -373 0
-29 -72 16 374 0
-29 -72 16 -374 0
-65 72 57 375 0
-65 72 57 -375 0
61 -75 26 376 0
61 -75 26 -376 0
63 75 22 377 0
63 75 22 -377 0
5 -2 71 378 0
5 -2 71 -378 0
-33 -75 14 379 0
-33 -75 14 -379 0
-62 -61 75 380 0
-62 -61 75 -380 0
5 31 32 381 0
5 31 32 -381 0
-35 -25 -18 382 0
-35 -25 -18 -382 0
14 -60 54 383 0
14 -60 54 -383 0
-26 -20 24 384 0
-26 -20 24 -384 0
-42 55 -6 385 0
-42 55 -6 -385 0
73 -28 -6 386 0
73 -28 -6 -386 0
-47 -18 -68 387 0
-47 -18 -68 -387 0
41 13 34 388 0
41 13 34 -388 0
-45 47 40 389 0
-45 47 40 -389 0
13 52 12 390 0
13 52 12 -390 0
-68 -15 -61 391 0
-68 -15 -61 -391 0
42 15 -62 392 0
42 15 -62 -392 0
-9 -44 72 393 0
-9 -44 72 -393 0
63 33 -65 394 0
63 33 -65 -394 0
-60 -38 -52 395 0
-60 -38 -52 -395 0
30 -49 -8 396 0
30 -49 -8 -396 0
-59 -15 -65 397 0
-59 -15 -65 -397 0
30 57 36 398 0
30 57 36 -398 0
45 -11 57 399 0
45 -11 57 -399 0
35 23 45 400 0
35 23 45 -400 0
401 402 403 404 0
401 402 403 -404 0
401 402 -403 404 0
401 402 -403 -404 0
401 -402 403 404 0
401 -402 403 -404 0
401 -402 -403 404 0
401 -402 -403 -404 0
-401 402 403 404 0
-401 402 403 -404 0
-401 402 -403 404 0
-401 402 -403 -404 0
-401 -402 403 404 0
-401 -402 403 -404 0
-401 -402 -403 404 0
-401 -402 -403 -404 0
405 406 407 408 0
405 406 407 -408 0
405 406 -407 408 0
405 406 -407 -408 0
405 -406 407 408 0
405 -406 407 -408 0
405 -406 -407 408 0
405 -406 -407 -408 0
-405 406 407 408 0
-405 406 407 -408 0
-405 406 -407 408 0
-405 406 -407 -408 0
-405 -406 407 408 0
-405 -406 407 -408 0
-405 -406 -407 408 0
-405 -406 -407 -408 0
409 410 411 412 0
409 410 411 -412 0
409 410 -411 412 0
409 410 -411 -412 0
409 -410 411 412 0
409 -410 411 -412 0
409 -410 -411 412 0
409 -410 -411 -412 0
-409 410 411 412 0
-409 410 411 -412 0
-409 410 -411 412 0
-409 410 -411 -412 0
-409 -410 411 412 0
-409 -410 411 -412 0
-409 -410 -411 412 0
-409 -410 -411 -412 0
